* #variable= 69 #constraint= 94 
-1 x47 -1 x1 -1 x24 >= -2 ;
-1 x47 +1 x1 +1 x24 >= 0 ;
+1 x47 -1 x1 +1 x24 >= 0 ;
+1 x47 +1 x1 -1 x24 >= 0 ;
-1 x48 -1 x2 -1 x25 >= -2 ;
-1 x48 +1 x2 +1 x25 >= 0 ;
+1 x48 -1 x2 +1 x25 >= 0 ;
+1 x48 +1 x2 -1 x25 >= 0 ;
-1 x49 -1 x3 -1 x26 >= -2 ;
-1 x49 +1 x3 +1 x26 >= 0 ;
+1 x49 -1 x3 +1 x26 >= 0 ;
+1 x49 +1 x3 -1 x26 >= 0 ;
-1 x50 -1 x4 -1 x27 >= -2 ;
-1 x50 +1 x4 +1 x27 >= 0 ;
+1 x50 -1 x4 +1 x27 >= 0 ;
+1 x50 +1 x4 -1 x27 >= 0 ;
-1 x51 -1 x5 -1 x28 >= -2 ;
-1 x51 +1 x5 +1 x28 >= 0 ;
+1 x51 -1 x5 +1 x28 >= 0 ;
+1 x51 +1 x5 -1 x28 >= 0 ;
-1 x52 -1 x6 -1 x29 >= -2 ;
-1 x52 +1 x6 +1 x29 >= 0 ;
+1 x52 -1 x6 +1 x29 >= 0 ;
+1 x52 +1 x6 -1 x29 >= 0 ;
-1 x53 -1 x7 -1 x30 >= -2 ;
-1 x53 +1 x7 +1 x30 >= 0 ;
+1 x53 -1 x7 +1 x30 >= 0 ;
+1 x53 +1 x7 -1 x30 >= 0 ;
-1 x54 -1 x8 -1 x31 >= -2 ;
-1 x54 +1 x8 +1 x31 >= 0 ;
+1 x54 -1 x8 +1 x31 >= 0 ;
+1 x54 +1 x8 -1 x31 >= 0 ;
-1 x55 -1 x9 -1 x32 >= -2 ;
-1 x55 +1 x9 +1 x32 >= 0 ;
+1 x55 -1 x9 +1 x32 >= 0 ;
+1 x55 +1 x9 -1 x32 >= 0 ;
-1 x56 -1 x10 -1 x33 >= -2 ;
-1 x56 +1 x10 +1 x33 >= 0 ;
+1 x56 -1 x10 +1 x33 >= 0 ;
+1 x56 +1 x10 -1 x33 >= 0 ;
-1 x57 -1 x11 -1 x34 >= -2 ;
-1 x57 +1 x11 +1 x34 >= 0 ;
+1 x57 -1 x11 +1 x34 >= 0 ;
+1 x57 +1 x11 -1 x34 >= 0 ;
-1 x58 -1 x12 -1 x35 >= -2 ;
-1 x58 +1 x12 +1 x35 >= 0 ;
+1 x58 -1 x12 +1 x35 >= 0 ;
+1 x58 +1 x12 -1 x35 >= 0 ;
-1 x59 -1 x13 -1 x36 >= -2 ;
-1 x59 +1 x13 +1 x36 >= 0 ;
+1 x59 -1 x13 +1 x36 >= 0 ;
+1 x59 +1 x13 -1 x36 >= 0 ;
-1 x60 -1 x14 -1 x37 >= -2 ;
-1 x60 +1 x14 +1 x37 >= 0 ;
+1 x60 -1 x14 +1 x37 >= 0 ;
+1 x60 +1 x14 -1 x37 >= 0 ;
-1 x61 -1 x15 -1 x38 >= -2 ;
-1 x61 +1 x15 +1 x38 >= 0 ;
+1 x61 -1 x15 +1 x38 >= 0 ;
+1 x61 +1 x15 -1 x38 >= 0 ;
-1 x62 -1 x16 -1 x39 >= -2 ;
-1 x62 +1 x16 +1 x39 >= 0 ;
+1 x62 -1 x16 +1 x39 >= 0 ;
+1 x62 +1 x16 -1 x39 >= 0 ;
-1 x63 -1 x17 -1 x40 >= -2 ;
-1 x63 +1 x17 +1 x40 >= 0 ;
+1 x63 -1 x17 +1 x40 >= 0 ;
+1 x63 +1 x17 -1 x40 >= 0 ;
-1 x64 -1 x18 -1 x41 >= -2 ;
-1 x64 +1 x18 +1 x41 >= 0 ;
+1 x64 -1 x18 +1 x41 >= 0 ;
+1 x64 +1 x18 -1 x41 >= 0 ;
-1 x65 -1 x19 -1 x42 >= -2 ;
-1 x65 +1 x19 +1 x42 >= 0 ;
+1 x65 -1 x19 +1 x42 >= 0 ;
+1 x65 +1 x19 -1 x42 >= 0 ;
-1 x66 -1 x20 -1 x43 >= -2 ;
-1 x66 +1 x20 +1 x43 >= 0 ;
+1 x66 -1 x20 +1 x43 >= 0 ;
+1 x66 +1 x20 -1 x43 >= 0 ;
-1 x67 -1 x21 -1 x44 >= -2 ;
-1 x67 +1 x21 +1 x44 >= 0 ;
+1 x67 -1 x21 +1 x44 >= 0 ;
+1 x67 +1 x21 -1 x44 >= 0 ;
-1 x68 -1 x22 -1 x45 >= -2 ;
-1 x68 +1 x22 +1 x45 >= 0 ;
+1 x68 -1 x22 +1 x45 >= 0 ;
+1 x68 +1 x22 -1 x45 >= 0 ;
-1 x69 -1 x23 -1 x46 >= -2 ;
-1 x69 +1 x23 +1 x46 >= 0 ;
+1 x69 -1 x23 +1 x46 >= 0 ;
+1 x69 +1 x23 -1 x46 >= 0 ;
+1 x1 -1 x24 +2 x2 -2 x25 +4 x3 -4 x26 +8 x4 -8 x27 +16 x5 -16 x28 +32 x6 -32 x29 +64 x7 -64 x30 +128 x8 -128 x31 +256 x9 -256 x32 +512 x10 -512 x33 +1024 x11 -1024 x34 +2048 x12 -2048 x35 +4096 x13 -4096 x36 +8192 x14 -8192 x37 +16384 x15 -16384 x38 +32768 x16 -32768 x39 +65536 x17 -65536 x40 +131072 x18 -131072 x41 +262144 x19 -262144 x42 +524288 x20 -524288 x43 +1048576 x21 -1048576 x44 +2097152 x22 -2097152 x45 +4194304 x23 -4194304 x46 = 0 ;
+1 x47 +1 x48 +1 x49 +1 x50 +1 x51 +1 x52 +1 x53 +1 x54 +1 x55 +1 x56 +1 x57 +1 x58 +1 x59 +1 x60 +1 x61 +1 x62 +1 x63 +1 x64 +1 x65 +1 x66 +1 x67 +1 x68 +1 x69 >= 1 ;
